% Generated by MiniZinc 2.9.3
% Solver library: /home/icwmmarijnisse/Pumpkin/minizinc/lib
% Command line invocation: minizinc --compile --fzn ./instance.fzn --ozn ./instance.ozn --solver pumpkin ../../../../benchmarks/models/tsp/instances/tsp.mzn ../../../../benchmarks/models/tsp/instances/TSP_N20_1.dzn 

predicate pumpkin_circuit(array [int] of var int: x);
array [1..20] of int: X_INTRODUCED_38_ = [0,888,473,187,52,267,389,336,217,466,335,346,780,901,389,285,771,975,852,432];
array [1..20] of int: X_INTRODUCED_40_ = [888,0,259,855,84,482,20,768,553,54,975,359,230,666,71,800,981,668,42,773];
array [1..20] of int: X_INTRODUCED_42_ = [473,259,0,32,973,254,205,860,21,637,157,245,130,485,686,118,578,971,224,477];
array [1..20] of int: X_INTRODUCED_44_ = [187,855,32,0,717,263,786,378,172,621,622,987,766,736,118,797,839,168,988,319];
array [1..20] of int: X_INTRODUCED_46_ = [52,84,973,717,0,111,593,27,952,320,590,694,930,982,385,407,965,733,204,78];
array [1..20] of int: X_INTRODUCED_48_ = [267,482,254,263,111,0,607,708,851,643,249,105,714,792,309,871,701,615,825,124];
array [1..20] of int: X_INTRODUCED_50_ = [389,20,205,786,593,607,0,816,580,802,43,356,546,439,678,380,71,519,664,350];
array [1..20] of int: X_INTRODUCED_52_ = [336,768,860,378,27,708,816,0,13,870,431,843,502,109,444,984,371,651,913,849];
array [1..20] of int: X_INTRODUCED_54_ = [217,553,21,172,952,851,580,13,0,471,725,157,446,181,752,535,989,667,277,631];
array [1..20] of int: X_INTRODUCED_56_ = [466,54,637,621,320,643,802,870,471,0,828,942,552,794,496,477,447,846,749,607];
array [1..20] of int: X_INTRODUCED_58_ = [335,975,157,622,590,249,43,431,725,828,0,275,331,873,252,851,958,89,286,903];
array [1..20] of int: X_INTRODUCED_60_ = [346,359,245,987,694,105,356,843,157,942,275,0,462,250,769,476,584,625,685,389];
array [1..20] of int: X_INTRODUCED_62_ = [780,230,130,766,930,714,546,502,446,552,331,462,0,345,30,507,872,333,187,500];
array [1..20] of int: X_INTRODUCED_64_ = [901,666,485,736,982,792,439,109,181,794,873,250,345,0,218,364,817,265,349,287];
array [1..20] of int: X_INTRODUCED_66_ = [389,71,686,118,385,309,678,444,752,496,252,769,30,218,0,902,611,719,902,283];
array [1..20] of int: X_INTRODUCED_68_ = [285,800,118,797,407,871,380,984,535,477,851,476,507,364,902,0,570,11,530,971];
array [1..20] of int: X_INTRODUCED_70_ = [771,981,578,839,965,701,71,371,989,447,958,584,872,817,611,570,0,196,88,248];
array [1..20] of int: X_INTRODUCED_72_ = [975,668,971,168,733,615,519,651,667,846,89,625,333,265,719,11,196,0,738,417];
array [1..20] of int: X_INTRODUCED_74_ = [852,42,224,988,204,825,664,913,277,749,286,685,187,349,902,530,88,738,0,501];
array [1..20] of int: X_INTRODUCED_76_ = [432,773,477,319,78,124,350,849,631,607,903,389,500,287,283,971,248,417,501,0];
array [1..21] of int: X_INTRODUCED_81_ = [1,-1,-1,-1,-1,-1,-1,-1,-1,-1,-1,-1,-1,-1,-1,-1,-1,-1,-1,-1,-1];
var 1..20: X_INTRODUCED_16_;
var 1..20: X_INTRODUCED_17_;
var 1..20: X_INTRODUCED_18_;
var 1..20: X_INTRODUCED_19_;
var 1..20: X_INTRODUCED_20_;
var 1..20: X_INTRODUCED_21_;
var 1..20: X_INTRODUCED_22_;
var 1..20: X_INTRODUCED_23_;
var 1..20: X_INTRODUCED_24_;
var 1..20: X_INTRODUCED_25_;
var 1..20: X_INTRODUCED_26_;
var 1..20: X_INTRODUCED_27_;
var 1..20: X_INTRODUCED_28_;
var 1..20: X_INTRODUCED_29_;
var 1..20: X_INTRODUCED_30_;
var 1..20: X_INTRODUCED_31_;
var 1..20: X_INTRODUCED_32_;
var 1..20: X_INTRODUCED_33_;
var 1..20: X_INTRODUCED_34_;
var 1..20: X_INTRODUCED_35_;
var 0..19184: Objective:: output_var:: is_defined_var;
var 0..975: X_INTRODUCED_39_ ::var_is_introduced :: is_defined_var;
var 0..981: X_INTRODUCED_41_ ::var_is_introduced :: is_defined_var;
var 0..973: X_INTRODUCED_43_ ::var_is_introduced :: is_defined_var;
var 0..988: X_INTRODUCED_45_ ::var_is_introduced :: is_defined_var;
var 0..982: X_INTRODUCED_47_ ::var_is_introduced :: is_defined_var;
var 0..871: X_INTRODUCED_49_ ::var_is_introduced :: is_defined_var;
var 0..816: X_INTRODUCED_51_ ::var_is_introduced :: is_defined_var;
var 0..984: X_INTRODUCED_53_ ::var_is_introduced :: is_defined_var;
var 0..989: X_INTRODUCED_55_ ::var_is_introduced :: is_defined_var;
var 0..942: X_INTRODUCED_57_ ::var_is_introduced :: is_defined_var;
var 0..975: X_INTRODUCED_59_ ::var_is_introduced :: is_defined_var;
var 0..987: X_INTRODUCED_61_ ::var_is_introduced :: is_defined_var;
var 0..930: X_INTRODUCED_63_ ::var_is_introduced :: is_defined_var;
var 0..982: X_INTRODUCED_65_ ::var_is_introduced :: is_defined_var;
var 0..902: X_INTRODUCED_67_ ::var_is_introduced :: is_defined_var;
var 0..984: X_INTRODUCED_69_ ::var_is_introduced :: is_defined_var;
var 0..989: X_INTRODUCED_71_ ::var_is_introduced :: is_defined_var;
var 0..975: X_INTRODUCED_73_ ::var_is_introduced :: is_defined_var;
var 0..988: X_INTRODUCED_75_ ::var_is_introduced :: is_defined_var;
var 0..971: X_INTRODUCED_77_ ::var_is_introduced :: is_defined_var;
array [1..20] of var int: Successor:: output_array([1..20]) = [X_INTRODUCED_16_,X_INTRODUCED_17_,X_INTRODUCED_18_,X_INTRODUCED_19_,X_INTRODUCED_20_,X_INTRODUCED_21_,X_INTRODUCED_22_,X_INTRODUCED_23_,X_INTRODUCED_24_,X_INTRODUCED_25_,X_INTRODUCED_26_,X_INTRODUCED_27_,X_INTRODUCED_28_,X_INTRODUCED_29_,X_INTRODUCED_30_,X_INTRODUCED_31_,X_INTRODUCED_32_,X_INTRODUCED_33_,X_INTRODUCED_34_,X_INTRODUCED_35_];
array [1..21] of var int: X_INTRODUCED_80_ ::var_is_introduced  = [Objective,X_INTRODUCED_39_,X_INTRODUCED_41_,X_INTRODUCED_43_,X_INTRODUCED_45_,X_INTRODUCED_47_,X_INTRODUCED_49_,X_INTRODUCED_51_,X_INTRODUCED_53_,X_INTRODUCED_55_,X_INTRODUCED_57_,X_INTRODUCED_59_,X_INTRODUCED_61_,X_INTRODUCED_63_,X_INTRODUCED_65_,X_INTRODUCED_67_,X_INTRODUCED_69_,X_INTRODUCED_71_,X_INTRODUCED_73_,X_INTRODUCED_75_,X_INTRODUCED_77_];
constraint pumpkin_circuit(Successor);
constraint array_int_element(X_INTRODUCED_16_,X_INTRODUCED_38_,X_INTRODUCED_39_):: defines_var(X_INTRODUCED_39_);
constraint array_int_element(X_INTRODUCED_17_,X_INTRODUCED_40_,X_INTRODUCED_41_):: defines_var(X_INTRODUCED_41_);
constraint array_int_element(X_INTRODUCED_18_,X_INTRODUCED_42_,X_INTRODUCED_43_):: defines_var(X_INTRODUCED_43_);
constraint array_int_element(X_INTRODUCED_19_,X_INTRODUCED_44_,X_INTRODUCED_45_):: defines_var(X_INTRODUCED_45_);
constraint array_int_element(X_INTRODUCED_20_,X_INTRODUCED_46_,X_INTRODUCED_47_):: defines_var(X_INTRODUCED_47_);
constraint array_int_element(X_INTRODUCED_21_,X_INTRODUCED_48_,X_INTRODUCED_49_):: defines_var(X_INTRODUCED_49_);
constraint array_int_element(X_INTRODUCED_22_,X_INTRODUCED_50_,X_INTRODUCED_51_):: defines_var(X_INTRODUCED_51_);
constraint array_int_element(X_INTRODUCED_23_,X_INTRODUCED_52_,X_INTRODUCED_53_):: defines_var(X_INTRODUCED_53_);
constraint array_int_element(X_INTRODUCED_24_,X_INTRODUCED_54_,X_INTRODUCED_55_):: defines_var(X_INTRODUCED_55_);
constraint array_int_element(X_INTRODUCED_25_,X_INTRODUCED_56_,X_INTRODUCED_57_):: defines_var(X_INTRODUCED_57_);
constraint array_int_element(X_INTRODUCED_26_,X_INTRODUCED_58_,X_INTRODUCED_59_):: defines_var(X_INTRODUCED_59_);
constraint array_int_element(X_INTRODUCED_27_,X_INTRODUCED_60_,X_INTRODUCED_61_):: defines_var(X_INTRODUCED_61_);
constraint array_int_element(X_INTRODUCED_28_,X_INTRODUCED_62_,X_INTRODUCED_63_):: defines_var(X_INTRODUCED_63_);
constraint array_int_element(X_INTRODUCED_29_,X_INTRODUCED_64_,X_INTRODUCED_65_):: defines_var(X_INTRODUCED_65_);
constraint array_int_element(X_INTRODUCED_30_,X_INTRODUCED_66_,X_INTRODUCED_67_):: defines_var(X_INTRODUCED_67_);
constraint array_int_element(X_INTRODUCED_31_,X_INTRODUCED_68_,X_INTRODUCED_69_):: defines_var(X_INTRODUCED_69_);
constraint array_int_element(X_INTRODUCED_32_,X_INTRODUCED_70_,X_INTRODUCED_71_):: defines_var(X_INTRODUCED_71_);
constraint array_int_element(X_INTRODUCED_33_,X_INTRODUCED_72_,X_INTRODUCED_73_):: defines_var(X_INTRODUCED_73_);
constraint array_int_element(X_INTRODUCED_34_,X_INTRODUCED_74_,X_INTRODUCED_75_):: defines_var(X_INTRODUCED_75_);
constraint array_int_element(X_INTRODUCED_35_,X_INTRODUCED_76_,X_INTRODUCED_77_):: defines_var(X_INTRODUCED_77_);
constraint int_lin_eq(X_INTRODUCED_81_,X_INTRODUCED_80_,0):: defines_var(Objective);
solve  minimize Objective;
